HFSDDW
15	9	3
0	66	1	2	2	73
0	27	1	36	2	83
0	96	1	86	2	92
0	78	1	14	2	47
0	81	1	52	2	26
0	15	1	46	2	17
0	61	1	75	2	82
0	60	1	7	2	75
0	56	1	77	2	71
0	32	1	17	2	71
0	6	1	37	2	40
0	38	1	37	2	48
0	33	1	59	2	94
0	58	1	47	2	61
0	61	1	34	2	95
LBCmax: 376
RELDUE
-1	168	2	6
-1	169	7	2
-1	79	7	7
-1	172	1	4
-1	77	2	7
-1	319	8	8
-1	209	3	1
-1	154	3	2
-1	136	9	7
-1	112	8	2
-1	58	4	6
-1	393	9	1
-1	405	9	6
-1	303	1	2
-1	257	2	3
DDW
150	186
155	183
65	93
158	186
69	85
265	373
169	249
140	168
118	154
108	116
55	61
318	468
324	486
267	339
242	272
